letting n =  10
letting blocks =  [[1, 2], [1, 7], [2, 10], [3, 1], [3, 2], [3, 3], [3, 8], [3, 9], [4, 2], [4, 5], [4, 6], [5, 8], [6, 1], [6, 3], [6, 7], [7, 8], [8, 4], [8, 7], [9, 2], [10, 1], [10, 7], [10, 10]]
